NAME : random_0
COMMENT : 50 random nodes
TYPE : TSP
DIMENSION : 50
EDGE_WEIGHT_TYPE : EUC_2D
NODE_COORD_SECTION
1 887 925
2 698 934
3 24 646
4 149 351
5 479 904
6 679 187
7 541 441
8 886 911
9 40 897
10 167 650
11 772 227
12 703 492
13 877 673
14 549 784
15 541 5
16 311 783
17 391 453
18 725 800
19 469 496
20 784 987
21 64 992
22 542 560
23 184 987
24 36 830
25 528 542
26 734 796
27 579 362
28 190 297
29 967 663
30 588 775
31 658 183
32 317 659
33 786 678
34 923 11
35 217 718
36 560 716
37 657 33
38 422 655
39 994 867
40 441 186
41 799 678
42 273 92
43 636 280
44 299 926
45 515 448
46 998 805
47 668 635
48 90 379
49 889 5
50 211 662
EOF